language ESSENCE' 1.0

$ first row is clues along left of grid pointing right, 0 indicating no clue
$ second row is clues along top of grid pointing down
$ third row is clues along right of grid pointing left
$ fourth row is clues along bottom of grid poiting up.

letting SIZE be 5
letting CLUES be
[
 [ 3, 0, 0, 0, 0 ],
 [ 0, 0, 1, 5, 3 ],
 [ 0, 3, 1, 0, 0 ],
 [ 4, 0, 4, 0, 2 ]
]

letting GRID be 
[
    [0,4,5,1,0],
    [5,0,0,2,0],
    [0,0,0,3,5],
    [0,0,0,4,0],
    [0,0,0,5,4]
]